succeed=True
config:eval_tsp="2023-03-31 05:00:10"
config:arch=arch6
config:num_worker=4
config:sample_type=khop2
config:root_path=/nvme/graph-learning-copy/samgraph/
config:dataset=mag240m-homo
config:pipeline=False
config:cache_policy=coll_cache_asymm_link
config:cache_percentage=0.0113
config:num_epoch=5
config:batch_size=2000
config:num_hidden=256
config:max_sampling_jobs=1
config:max_copying_jobs=1
config:barriered_epoch=1
config:presample_epoch=2
config:omp_thread_num=40
config:unsupervised=True
config:amp=True
config:rolling=0
config:fanout=[25, 10]
config:lr=0.003
config:dropout=0.5
config:max_num_step=1000
config:validate_configs=False
config:report_acc=0
config:dataset_path=/nvme/graph-learning-copy/samgraph/mag240m-homo
config:workers=['cuda:0', 'cuda:1', 'cuda:2', 'cuda:3']
config:num_fanout=2
config:num_layer=2
config:_run_mode=RunMode.SGNN
config:_log_level=warn
config:_profile_level=3
config:_empty_feat=25
config:_arch=6
config:_sample_type=5
config:_cache_policy=13
test_result:init:input_scale_factor=1.10093
0 :  {link #0 : 1}, {link #1 : 2}, {link #2 : 3},
1 :  {link #0 : 2}, {link #1 : 3}, {link #2 : 0},
2 :  {link #0 : 3}, {link #1 : 0}, {link #2 : 1},
3 :  {link #0 : 0}, {link #1 : 1}, {link #2 : 2},
0 :  {link #0 : 1}, {link #1 : 2}, {link #2 : 3},
1 :  {link #0 : 2}, {link #1 : 3}, {link #2 : 0},
2 :  {link #0 : 3}, {link #1 : 0}, {link #2 : 1},
3 :  {link #0 : 0}, {link #1 : 1}, {link #2 : 2},
0 :  {link #0 : 1}, {link #1 : 2}, {link #2 : 3},
1 :  {link #0 : 2}, {link #1 : 3}, {link #2 : 0},
2 :  {link #0 : 3}, {link #1 : 0}, {link #2 : 1},
3 :  {link #0 : 0}, {link #1 : 1}, {link #2 : 2},
0 :  {link #0 : 1}, {link #1 : 2}, {link #2 : 3},
1 :  {link #0 : 2}, {link #1 : 3}, {link #2 : 0},
2 :  {link #0 : 3}, {link #1 : 0}, {link #2 : 1},
3 :  {link #0 : 0}, {link #1 : 1}, {link #2 : 2},
Set parameter WLSAccessID
Set parameter WLSSecret
Set parameter LicenseID
Set parameter TimeLimit to value 200
Set parameter MIPGap to value 0.05
Set parameter LogFile to value "cppsolver.log"
Set parameter Threads to value 40
Academic license - for non-commercial use only - registered to xiaoniu.sxn@sjtu.edu.cn
Gurobi Optimizer version 9.5.1 build v9.5.1rc2 (linux64)
Thread count: 40 physical cores, 80 logical processors, using up to 40 threads
Academic license - for non-commercial use only - registered to xiaoniu.sxn@sjtu.edu.cn
Optimize a model with 6736 rows, 2198 columns and 20664 nonzeros
Model fingerprint: 0xaffdadb1
Variable types: 5 continuous, 2193 integer (2193 binary)
Coefficient statistics:
  Matrix range     [2e-04, 1e+04]
  Objective range  [1e+00, 1e+00]
  Bounds range     [1e+00, 1e+00]
  RHS range        [1e+00, 2e+04]
Found heuristic solution: objective 21379.927322
Presolve removed 4924 rows and 277 columns
Presolve time: 0.02s
Presolved: 1812 rows, 1921 columns, 5424 nonzeros
Variable types: 0 continuous, 1921 integer (1921 binary)
Found heuristic solution: objective 20700.907707

Root relaxation: objective 1.423309e+04, 1444 iterations, 0.01 seconds (0.01 work units)

    Nodes    |    Current Node    |     Objective Bounds      |     Work
 Expl Unexpl |  Obj  Depth IntInf | Incumbent    BestBd   Gap | It/Node Time

     0     0 14233.0947    0   25 20700.9077 14233.0947  31.2%     -    0s
H    0     0                    14617.783524 14233.0947  2.63%     -    0s

Explored 1 nodes (2011 simplex iterations) in 0.05 seconds (0.03 work units)
Thread count was 40 (of 80 available processors)

Solution count 3: 14617.8 20700.9 21379.9 

Optimal solution found (tolerance 5.00e-02)
Best objective 1.461778352395e+04, best bound 1.423309474300e+04, gap 2.6316%
coll_cache:optimal_local_rate=0.120711,0.142052,0.111826,0.135599,
coll_cache:optimal_remote_rate=0.355985,0.334644,0.36487,0.341096,
coll_cache:optimal_cpu_rate=0.523304,0.523304,0.523304,0.523304,
z=14617.8
test_result:init:feat_nbytes=375030526464
test_result:init:cache_nbytes=4612875264
test_result:init:feat_nbytes=375030526464
test_result:init:cache_nbytes=4612875264
test_result:init:feat_nbytes=375030526464
test_result:init:cache_nbytes=4612875264
test_result:init:feat_nbytes=375030526464
test_result:init:cache_nbytes=4612875264
[CUDA] cuda0: usage: 12.66 GB
[SAM] cuda0 data alloc        : 77.69 MB
[SAM] cuda0 workspace         : 4.03 GB
[SAM] cuda0 workspace reserve : 1.55 GB
[SAM] cuda0 total             : 4.10 GB
    [Step(average) Profiler Level 1 E4 S999]
        L1  sample           0.042055 | send           0.000000
        L1  recv             0.000000 | copy           0.066037 | convert time 0.000511 | train  0.018901
        L1  feature nbytes    1.36 GB | label nbytes   15.62 KB
        L1  id nbytes      0.00 Bytes | graph nbytes 0.00 Bytes
        L1  miss nbytes     741.81 MB | remote nbytes  479.79 MB
        L1  num nodes          953660 | num samples     1098625
    [Step(average) Profiler Level 2 E4 S999]
        L2  shuffle     0.000073 | core sample  0.039272 | id remap        0.002392
        L2  graph copy  0.000000 | id copy      0.000000 | cache feat copy 0.064688
        L2  last layer sample time 0.000796 | size 49769.872718
    [Step(average) Profiler Level 3 E4 S999]
        L3  khop sample coo  0.038954 | khop sort coo      0.000000 | khop count edge     0.000042 | khop compact edge 0.000213
        L3  walk sample coo  0.000000 | walk topk total    0.000000 | walk topk step1     0.000000 | walk topk step2   0.000000
        L3  walk topk step3  0.000000 | walk topk step4    0.000000 | walk topk step5     0.000000
        L3  walk topk step6  0.000000 | walk topk step7    0.000000
        L3  remap unique     0.000300 | remap populate     0.002033 | remap mapnode       0.000000 | remap mapedge     0.000373
        L3  cache get_index  0.000642 | cache copy_index   0.000000 | cache extract_miss  0.000000
        L3  cache copy_miss  0.000000 | cache combine_miss 0.064039 | cache combine cache 0.004634 | cache combine remote 0.004480
        L3  label extract  0.000037
    [Init Profiler Level 1]
        L1  init    12.8150 | sampler init    33.2998 | trainer init 18.8933
    [Init Profiler Level 2]
        L2  load ds        24.0825 | init queue           0.0000
        L2  presample      20.1585 | build interal ds     1.8717
        L2  build cache    18.8918
    [Init Profiler Level 3]
        L3  load dataset: mmap    12.8129 | copy         0.0000
        L3  dist queue: alloc      0.0000 | pin          0.0000 | push     0.0000
        L3  presample: init        1.3023
        L3  presample: sample      7.5508 | copy         0.6078
        L3  presample: count       6.8038 | sort         1.0241
        L3  presample: reset       0.0022 | get rank     0.0873
        L3  internal: cuda ctx     0.0002 | cuda stream     0.0000
[Worker 1/4] Started with PID 55230(Tesla V100-SXM2-16GB)
worker 1 at process 55230
[Worker 1] run for 5 epochs with 250 steps
[Train  Worker 1] Avg Epoch 31.9032 | Sample 10.5142 | Copy 16.5096 | Train Total (Profiler) 4.8528
[Worker 2/4] Started with PID 55232(Tesla V100-SXM2-16GB)
worker 2 at process 55232
[Worker 2] run for 5 epochs with 250 steps
[Train  Worker 2] Avg Epoch 31.9032 | Sample 10.5123 | Copy 16.5015 | Train Total (Profiler) 4.8604
[Worker 3/4] Started with PID 55235(Tesla V100-SXM2-16GB)
worker 3 at process 55235
[Worker 3] run for 5 epochs with 250 steps
[Train  Worker 3] Avg Epoch 31.9032 | Sample 10.5021 | Copy 16.5260 | Train Total (Profiler) 4.8482
[Worker 0/4] Started with PID 55228(Tesla V100-SXM2-16GB)
worker 0 at process 55228
[Worker 0] run for 5 epochs with 250 steps
Epoch 00000 | Epoch Time 33.1989 | Sample 10.6072 | Copy 16.6059 | Total Train(Profiler) 5.9574
Epoch 00001 | Epoch Time 31.9328 | Sample 10.5189 | Copy 16.5303 | Total Train(Profiler) 4.8560
Epoch 00002 | Epoch Time 31.9130 | Sample 10.5223 | Copy 16.5061 | Total Train(Profiler) 4.8579
Epoch 00003 | Epoch Time 31.9229 | Sample 10.5343 | Copy 16.5147 | Total Train(Profiler) 4.8472
Epoch 00004 | Epoch Time 31.8440 | Sample 10.5298 | Copy 16.4488 | Total Train(Profiler) 4.8407
[Train  Worker 0] Avg Epoch 31.9032 | Sample 10.5263 | Copy 16.5000 | Train Total (Profiler) 4.8505
|===========================================================================|
|                  PyTorch CUDA memory summary, device ID 0                 |
|---------------------------------------------------------------------------|
|            CUDA OOMs: 0            |        cudaMalloc retries: 0         |
|===========================================================================|
|        Metric         | Cur Usage  | Peak Usage | Tot Alloc  | Tot Freed  |
|---------------------------------------------------------------------------|
| Allocated memory      |   35660 KB |  657079 KB |    2200 GB |    2200 GB |
|       from large pool |   26381 KB |  654142 KB |    2183 GB |    2183 GB |
|       from small pool |    9279 KB |   11605 KB |      16 GB |      16 GB |
|---------------------------------------------------------------------------|
| Active memory         |   35660 KB |  657079 KB |    2200 GB |    2200 GB |
|       from large pool |   26381 KB |  654142 KB |    2183 GB |    2183 GB |
|       from small pool |    9279 KB |   11605 KB |      16 GB |      16 GB |
|---------------------------------------------------------------------------|
| GPU reserved memory   |     780 MB |     780 MB |     780 MB |       0 B  |
|       from large pool |     764 MB |     764 MB |     764 MB |       0 B  |
|       from small pool |      16 MB |      16 MB |      16 MB |       0 B  |
|---------------------------------------------------------------------------|
| Non-releasable memory |   46259 KB |  646444 KB |    1911 GB |    1911 GB |
|       from large pool |   43251 KB |  644691 KB |    1891 GB |    1891 GB |
|       from small pool |    3008 KB |    5577 KB |      19 GB |      19 GB |
|---------------------------------------------------------------------------|
| Allocations           |      43    |      62    |  182539    |  182496    |
|       from large pool |       7    |      18    |   71253    |   71246    |
|       from small pool |      36    |      47    |  111286    |  111250    |
|---------------------------------------------------------------------------|
| Active allocs         |      44    |      62    |  182539    |  182495    |
|       from large pool |       7    |      18    |   71253    |   71246    |
|       from small pool |      37    |      47    |  111286    |  111249    |
|---------------------------------------------------------------------------|
| GPU reserved segments |      17    |      17    |      17    |       0    |
|       from large pool |       9    |       9    |       9    |       0    |
|       from small pool |       8    |       8    |       8    |       0    |
|---------------------------------------------------------------------------|
| Non-releasable allocs |      16    |      28    |   81468    |   81452    |
|       from large pool |       3    |      13    |   47504    |   47501    |
|       from small pool |      13    |      22    |   33964    |   33951    |
|---------------------------------------------------------------------------|
| Oversize allocations  |       0    |       0    |       0    |       0    |
|---------------------------------------------------------------------------|
| Oversize GPU segments |       0    |       0    |       0    |       0    |
|===========================================================================|

test_result:sample_time=nan
test_result:epoch_time:sample_total=10.5263
test_result:epoch_time:copy_time=16.5000
test_result:convert_time=0.1284
test_result:train_time=4.7220
test_result:epoch_time:train_total=4.8505
test_result:cache_percentage=0.0113
test_result:cache_hit_rate=1.0000
test_result:epoch_time:total=31.9032
test_result:run_time=160.8147

